70
1 0 4
2 0 8
2 1 8
3 0 7
3 1 1
3 2 1
4 0 5
4 1 4
4 2 1
4 3 1
5 0 7
5 1 10
5 2 10
5 3 10
5 4 1
6 0 7
6 1 1
6 2 3
6 3 7
6 4 9
6 5 4
7 0 10
7 1 1
7 2 10
7 3 7
7 4 6
7 5 4
7 6 2
8 0 4
8 1 1
8 2 10
8 3 4
8 4 3
8 5 6
8 6 5
8 7 1
9 0 9
9 1 6
9 2 6
9 3 2
9 4 7
9 5 6
9 6 7
9 7 5
9 8 2
10 0 4
10 1 6
10 2 8
10 3 8
10 4 1
10 5 1
10 6 9
10 7 9
10 8 1
10 9 3
11 0 6
11 1 9
11 2 7
11 3 1
11 4 7
11 5 1
11 6 9
11 7 10
11 8 6
11 9 10
11 10 10
12 0 10
12 1 3
12 2 5
12 3 6
12 4 10
12 5 3
12 6 1
12 7 6
12 8 3
12 9 4
12 10 4
12 11 8
13 0 4
13 1 8
13 2 7
13 3 1
13 4 1
13 5 2
13 6 5
13 7 9
13 8 1
13 9 6
13 10 7
13 11 4
13 12 1
14 0 6
14 1 9
14 2 6
14 3 7
14 4 1
14 5 2
14 6 10
14 7 2
14 8 9
14 9 9
14 10 9
14 11 6
14 12 9
14 13 4
15 0 10
15 1 2
15 2 7
15 3 4
15 4 2
15 5 1
15 6 10
15 7 9
15 8 1
15 9 5
15 10 8
15 11 5
15 12 8
15 13 6
15 14 9
16 0 6
16 1 4
16 2 5
16 3 5
16 4 4
16 5 7
16 6 5
16 7 8
16 8 10
16 9 5
16 10 7
16 11 7
16 12 3
16 13 9
16 14 6
16 15 7
17 0 5
17 1 9
17 2 6
17 3 2
17 4 3
17 5 9
17 6 3
17 7 4
17 8 3
17 9 8
17 10 3
17 11 7
17 12 3
17 13 4
17 14 10
17 15 6
17 16 4
18 0 10
18 1 5
18 2 8
18 3 10
18 4 8
18 5 3
18 6 8
18 7 4
18 8 7
18 9 2
18 10 1
18 11 6
18 12 2
18 13 7
18 14 1
18 15 9
18 16 6
18 17 4
19 0 10
19 1 1
19 2 7
19 3 2
19 4 3
19 5 4
19 6 8
19 7 10
19 8 1
19 9 2
19 10 3
19 11 10
19 12 5
19 13 9
19 14 10
19 15 4
19 16 9
19 17 2
19 18 7
20 0 8
20 1 3
20 2 10
20 3 10
20 4 10
20 5 5
20 6 1
20 7 6
20 8 7
20 9 9
20 10 7
20 11 6
20 12 3
20 13 3
20 14 7
20 15 7
20 16 4
20 17 5
20 18 2
20 19 3
21 0 1
21 1 7
21 2 6
21 3 1
21 4 6
21 5 3
21 6 8
21 7 5
21 8 8
21 9 9
21 10 4
21 11 2
21 12 10
21 13 8
21 14 7
21 15 5
21 16 5
21 17 6
21 18 5
21 19 3
21 20 1
22 0 6
22 1 5
22 2 6
22 3 2
22 4 3
22 5 8
22 6 2
22 7 1
22 8 9
22 9 10
22 10 3
22 11 9
22 12 6
22 13 3
22 14 8
22 15 1
22 16 9
22 17 10
22 18 9
22 19 8
22 20 6
22 21 6
23 0 9
23 1 4
23 2 3
23 3 8
23 4 2
23 5 5
23 6 8
23 7 7
23 8 10
23 9 10
23 10 7
23 11 10
23 12 9
23 13 4
23 14 9
23 15 9
23 16 5
23 17 10
23 18 9
23 19 8
23 20 3
23 21 2
23 22 2
24 0 3
24 1 7
24 2 6
24 3 4
24 4 7
24 5 6
24 6 7
24 7 4
24 8 6
24 9 5
24 10 8
24 11 3
24 12 10
24 13 9
24 14 6
24 15 10
24 16 7
24 17 9
24 18 1
24 19 2
24 20 4
24 21 10
24 22 7
24 23 2
25 0 1
25 1 4
25 2 7
25 3 6
25 4 4
25 5 3
25 6 2
25 7 7
25 8 7
25 9 4
25 10 5
25 11 6
25 12 6
25 13 2
25 14 4
25 15 2
25 16 7
25 17 1
25 18 3
25 19 6
25 20 1
25 21 2
25 22 5
25 23 3
25 24 7
26 0 5
26 1 5
26 2 1
26 3 1
26 4 10
26 5 8
26 6 5
26 7 8
26 8 10
26 9 4
26 10 5
26 11 10
26 12 4
26 13 6
26 14 9
26 15 6
26 16 2
26 17 10
26 18 3
26 19 10
26 20 2
26 21 3
26 22 3
26 23 9
26 24 8
26 25 10
27 0 1
27 1 1
27 2 9
27 3 6
27 4 10
27 5 7
27 6 6
27 7 7
27 8 5
27 9 3
27 10 6
27 11 7
27 12 1
27 13 3
27 14 9
27 15 10
27 16 6
27 17 8
27 18 4
27 19 6
27 20 10
27 21 10
27 22 5
27 23 1
27 24 10
27 25 8
27 26 1
28 0 6
28 1 3
28 2 2
28 3 9
28 4 3
28 5 10
28 6 9
28 7 7
28 8 3
28 9 10
28 10 6
28 11 2
28 12 4
28 13 4
28 14 5
28 15 3
28 16 5
28 17 5
28 18 8
28 19 8
28 20 7
28 21 1
28 22 10
28 23 10
28 24 5
28 25 5
28 26 6
28 27 7
29 0 4
29 1 10
29 2 5
29 3 1
29 4 8
29 5 9
29 6 3
29 7 5
29 8 1
29 9 1
29 10 4
29 11 3
29 12 6
29 13 7
29 14 1
29 15 1
29 16 6
29 17 9
29 18 10
29 19 9
29 20 8
29 21 10
29 22 9
29 23 6
29 24 5
29 25 6
29 26 6
29 27 2
29 28 5
30 0 3
30 1 1
30 2 8
30 3 4
30 4 10
30 5 3
30 6 10
30 7 8
30 8 2
30 9 7
30 10 7
30 11 7
30 12 7
30 13 1
30 14 1
30 15 1
30 16 8
30 17 6
30 18 4
30 19 2
30 20 4
30 21 6
30 22 7
30 23 5
30 24 7
30 25 6
30 26 4
30 27 1
30 28 6
30 29 3
31 0 6
31 1 3
31 2 3
31 3 7
31 4 5
31 5 9
31 6 1
31 7 6
31 8 3
31 9 9
31 10 1
31 11 5
31 12 2
31 13 7
31 14 4
31 15 5
31 16 3
31 17 8
31 18 7
31 19 1
31 20 8
31 21 3
31 22 6
31 23 3
31 24 2
31 25 10
31 26 5
31 27 5
31 28 1
31 29 1
31 30 8
32 0 6
32 1 1
32 2 2
32 3 8
32 4 10
32 5 10
32 6 2
32 7 2
32 8 1
32 9 10
32 10 3
32 11 4
32 12 3
32 13 7
32 14 6
32 15 9
32 16 5
32 17 5
32 18 2
32 19 8
32 20 10
32 21 10
32 22 6
32 23 3
32 24 2
32 25 1
32 26 2
32 27 9
32 28 6
32 29 6
32 30 5
32 31 8
33 0 5
33 1 2
33 2 5
33 3 5
33 4 3
33 5 2
33 6 10
33 7 10
33 8 1
33 9 4
33 10 5
33 11 9
33 12 10
33 13 1
33 14 4
33 15 2
33 16 8
33 17 1
33 18 2
33 19 9
33 20 1
33 21 3
33 22 10
33 23 9
33 24 3
33 25 4
33 26 7
33 27 9
33 28 4
33 29 5
33 30 1
33 31 9
33 32 6
34 0 2
34 1 3
34 2 8
34 3 9
34 4 2
34 5 3
34 6 6
34 7 5
34 8 4
34 9 10
34 10 10
34 11 2
34 12 10
34 13 6
34 14 3
34 15 3
34 16 5
34 17 7
34 18 8
34 19 7
34 20 5
34 21 8
34 22 3
34 23 8
34 24 9
34 25 7
34 26 1
34 27 6
34 28 2
34 29 8
34 30 4
34 31 8
34 32 10
34 33 2
35 0 1
35 1 8
35 2 4
35 3 10
35 4 2
35 5 5
35 6 7
35 7 1
35 8 9
35 9 1
35 10 4
35 11 1
35 12 1
35 13 4
35 14 10
35 15 8
35 16 4
35 17 1
35 18 9
35 19 9
35 20 8
35 21 4
35 22 5
35 23 3
35 24 2
35 25 2
35 26 6
35 27 1
35 28 10
35 29 3
35 30 10
35 31 5
35 32 1
35 33 9
35 34 5
36 0 4
36 1 1
36 2 5
36 3 5
36 4 8
36 5 3
36 6 8
36 7 5
36 8 1
36 9 5
36 10 5
36 11 5
36 12 8
36 13 3
36 14 8
36 15 4
36 16 9
36 17 4
36 18 7
36 19 6
36 20 4
36 21 5
36 22 9
36 23 1
36 24 7
36 25 1
36 26 6
36 27 10
36 28 10
36 29 8
36 30 1
36 31 2
36 32 5
36 33 3
36 34 1
36 35 7
37 0 1
37 1 2
37 2 7
37 3 8
37 4 9
37 5 9
37 6 6
37 7 5
37 8 7
37 9 10
37 10 2
37 11 10
37 12 8
37 13 9
37 14 9
37 15 8
37 16 5
37 17 1
37 18 1
37 19 5
37 20 3
37 21 7
37 22 1
37 23 3
37 24 9
37 25 8
37 26 5
37 27 3
37 28 4
37 29 9
37 30 2
37 31 4
37 32 4
37 33 3
37 34 8
37 35 8
37 36 10
38 0 7
38 1 2
38 2 3
38 3 4
38 4 9
38 5 9
38 6 1
38 7 7
38 8 6
38 9 8
38 10 10
38 11 7
38 12 4
38 13 4
38 14 2
38 15 9
38 16 8
38 17 4
38 18 1
38 19 6
38 20 10
38 21 8
38 22 4
38 23 7
38 24 3
38 25 4
38 26 5
38 27 7
38 28 2
38 29 5
38 30 2
38 31 8
38 32 6
38 33 4
38 34 3
38 35 7
38 36 8
38 37 10
39 0 10
39 1 1
39 2 1
39 3 5
39 4 8
39 5 7
39 6 7
39 7 7
39 8 2
39 9 2
39 10 10
39 11 10
39 12 1
39 13 7
39 14 10
39 15 8
39 16 1
39 17 10
39 18 10
39 19 4
39 20 5
39 21 4
39 22 10
39 23 2
39 24 5
39 25 10
39 26 9
39 27 7
39 28 6
39 29 9
39 30 1
39 31 7
39 32 2
39 33 8
39 34 5
39 35 7
39 36 1
39 37 2
39 38 3
40 0 2
40 1 4
40 2 9
40 3 10
40 4 2
40 5 9
40 6 1
40 7 2
40 8 9
40 9 6
40 10 2
40 11 7
40 12 6
40 13 8
40 14 2
40 15 6
40 16 9
40 17 10
40 18 3
40 19 4
40 20 5
40 21 1
40 22 9
40 23 8
40 24 5
40 25 10
40 26 4
40 27 9
40 28 1
40 29 4
40 30 7
40 31 1
40 32 3
40 33 10
40 34 5
40 35 6
40 36 1
40 37 2
40 38 4
40 39 4
41 0 8
41 1 8
41 2 10
41 3 7
41 4 3
41 5 1
41 6 1
41 7 2
41 8 2
41 9 9
41 10 1
41 11 8
41 12 10
41 13 4
41 14 10
41 15 9
41 16 7
41 17 8
41 18 5
41 19 8
41 20 7
41 21 2
41 22 4
41 23 9
41 24 2
41 25 8
41 26 2
41 27 5
41 28 4
41 29 2
41 30 3
41 31 3
41 32 2
41 33 10
41 34 4
41 35 7
41 36 10
41 37 7
41 38 1
41 39 7
41 40 1
42 0 8
42 1 7
42 2 6
42 3 9
42 4 7
42 5 9
42 6 10
42 7 10
42 8 3
42 9 7
42 10 5
42 11 5
42 12 5
42 13 1
42 14 9
42 15 3
42 16 9
42 17 6
42 18 4
42 19 2
42 20 3
42 21 4
42 22 8
42 23 9
42 24 2
42 25 4
42 26 5
42 27 3
42 28 3
42 29 6
42 30 9
42 31 2
42 32 1
42 33 5
42 34 9
42 35 5
42 36 6
42 37 8
42 38 7
42 39 3
42 40 3
42 41 2
43 0 7
43 1 7
43 2 10
43 3 10
43 4 10
43 5 7
43 6 6
43 7 10
43 8 8
43 9 4
43 10 3
43 11 10
43 12 3
43 13 1
43 14 6
43 15 8
43 16 2
43 17 7
43 18 9
43 19 6
43 20 2
43 21 10
43 22 4
43 23 7
43 24 1
43 25 3
43 26 1
43 27 7
43 28 6
43 29 10
43 30 9
43 31 9
43 32 4
43 33 9
43 34 6
43 35 10
43 36 4
43 37 1
43 38 5
43 39 1
43 40 10
43 41 9
43 42 9
44 0 8
44 1 4
44 2 1
44 3 6
44 4 1
44 5 9
44 6 5
44 7 6
44 8 10
44 9 7
44 10 8
44 11 1
44 12 5
44 13 2
44 14 5
44 15 6
44 16 10
44 17 5
44 18 7
44 19 9
44 20 5
44 21 8
44 22 2
44 23 10
44 24 9
44 25 6
44 26 3
44 27 9
44 28 7
44 29 6
44 30 2
44 31 8
44 32 3
44 33 9
44 34 5
44 35 9
44 36 8
44 37 5
44 38 8
44 39 5
44 40 8
44 41 1
44 42 3
44 43 2
45 0 9
45 1 6
45 2 10
45 3 6
45 4 10
45 5 8
45 6 8
45 7 10
45 8 8
45 9 5
45 10 8
45 11 10
45 12 1
45 13 4
45 14 2
45 15 7
45 16 1
45 17 3
45 18 6
45 19 6
45 20 5
45 21 6
45 22 10
45 23 2
45 24 8
45 25 2
45 26 2
45 27 1
45 28 3
45 29 3
45 30 9
45 31 6
45 32 5
45 33 7
45 34 4
45 35 5
45 36 9
45 37 7
45 38 9
45 39 8
45 40 3
45 41 9
45 42 8
45 43 6
45 44 8
46 0 8
46 1 3
46 2 1
46 3 4
46 4 5
46 5 9
46 6 8
46 7 5
46 8 5
46 9 10
46 10 3
46 11 2
46 12 7
46 13 3
46 14 3
46 15 5
46 16 8
46 17 4
46 18 7
46 19 3
46 20 2
46 21 8
46 22 2
46 23 6
46 24 5
46 25 6
46 26 6
46 27 7
46 28 7
46 29 5
46 30 8
46 31 6
46 32 6
46 33 7
46 34 4
46 35 10
46 36 7
46 37 5
46 38 4
46 39 7
46 40 1
46 41 10
46 42 7
46 43 5
46 44 3
46 45 4
47 0 1
47 1 10
47 2 2
47 3 7
47 4 3
47 5 1
47 6 9
47 7 6
47 8 1
47 9 9
47 10 6
47 11 1
47 12 10
47 13 8
47 14 3
47 15 2
47 16 9
47 17 7
47 18 9
47 19 5
47 20 4
47 21 1
47 22 10
47 23 10
47 24 5
47 25 10
47 26 2
47 27 10
47 28 7
47 29 3
47 30 2
47 31 10
47 32 3
47 33 6
47 34 2
47 35 3
47 36 7
47 37 9
47 38 4
47 39 9
47 40 6
47 41 1
47 42 2
47 43 3
47 44 6
47 45 8
47 46 9
48 0 8
48 1 8
48 2 4
48 3 3
48 4 2
48 5 7
48 6 7
48 7 2
48 8 6
48 9 10
48 10 10
48 11 9
48 12 9
48 13 6
48 14 2
48 15 10
48 16 3
48 17 10
48 18 6
48 19 8
48 20 6
48 21 5
48 22 10
48 23 2
48 24 6
48 25 6
48 26 1
48 27 7
48 28 9
48 29 8
48 30 6
48 31 5
48 32 1
48 33 6
48 34 6
48 35 4
48 36 1
48 37 2
48 38 7
48 39 7
48 40 2
48 41 8
48 42 5
48 43 2
48 44 10
48 45 9
48 46 9
48 47 4
49 0 9
49 1 2
49 2 5
49 3 7
49 4 1
49 5 6
49 6 9
49 7 6
49 8 2
49 9 10
49 10 2
49 11 1
49 12 9
49 13 9
49 14 2
49 15 6
49 16 5
49 17 7
49 18 9
49 19 3
49 20 8
49 21 5
49 22 4
49 23 2
49 24 6
49 25 10
49 26 10
49 27 4
49 28 2
49 29 10
49 30 7
49 31 9
49 32 5
49 33 1
49 34 7
49 35 6
49 36 2
49 37 6
49 38 2
49 39 6
49 40 9
49 41 10
49 42 1
49 43 2
49 44 10
49 45 9
49 46 3
49 47 4
49 48 9
50 0 4
50 1 5
50 2 9
50 3 8
50 4 10
50 5 10
50 6 10
50 7 8
50 8 8
50 9 10
50 10 3
50 11 7
50 12 3
50 13 3
50 14 10
50 15 8
50 16 2
50 17 8
50 18 9
50 19 3
50 20 6
50 21 6
50 22 6
50 23 3
50 24 3
50 25 5
50 26 3
50 27 10
50 28 3
50 29 5
50 30 4
50 31 7
50 32 6
50 33 2
50 34 2
50 35 1
50 36 10
50 37 8
50 38 5
50 39 2
50 40 7
50 41 6
50 42 10
50 43 1
50 44 9
50 45 2
50 46 3
50 47 2
50 48 6
50 49 3
51 0 8
51 1 3
51 2 5
51 3 5
51 4 8
51 5 2
51 6 9
51 7 7
51 8 6
51 9 1
51 10 5
51 11 10
51 12 4
51 13 6
51 14 5
51 15 8
51 16 1
51 17 7
51 18 4
51 19 8
51 20 4
51 21 9
51 22 2
51 23 5
51 24 10
51 25 10
51 26 9
51 27 4
51 28 4
51 29 2
51 30 10
51 31 4
51 32 9
51 33 1
51 34 8
51 35 4
51 36 5
51 37 10
51 38 2
51 39 6
51 40 4
51 41 4
51 42 7
51 43 4
51 44 5
51 45 7
51 46 7
51 47 8
51 48 4
51 49 2
51 50 4
52 0 9
52 1 5
52 2 8
52 3 7
52 4 9
52 5 7
52 6 2
52 7 6
52 8 6
52 9 10
52 10 9
52 11 8
52 12 4
52 13 5
52 14 1
52 15 10
52 16 3
52 17 4
52 18 10
52 19 5
52 20 4
52 21 4
52 22 5
52 23 2
52 24 9
52 25 10
52 26 9
52 27 2
52 28 6
52 29 2
52 30 6
52 31 9
52 32 6
52 33 4
52 34 3
52 35 7
52 36 4
52 37 8
52 38 6
52 39 4
52 40 5
52 41 5
52 42 10
52 43 8
52 44 8
52 45 2
52 46 9
52 47 3
52 48 10
52 49 4
52 50 8
52 51 5
53 0 9
53 1 5
53 2 4
53 3 8
53 4 1
53 5 2
53 6 7
53 7 9
53 8 9
53 9 6
53 10 5
53 11 10
53 12 1
53 13 9
53 14 6
53 15 10
53 16 1
53 17 6
53 18 10
53 19 7
53 20 8
53 21 3
53 22 6
53 23 1
53 24 10
53 25 10
53 26 8
53 27 10
53 28 7
53 29 6
53 30 10
53 31 6
53 32 10
53 33 1
53 34 5
53 35 10
53 36 7
53 37 2
53 38 1
53 39 1
53 40 3
53 41 10
53 42 7
53 43 2
53 44 9
53 45 5
53 46 1
53 47 7
53 48 1
53 49 7
53 50 8
53 51 5
53 52 7
54 0 10
54 1 6
54 2 2
54 3 5
54 4 8
54 5 2
54 6 4
54 7 1
54 8 9
54 9 10
54 10 4
54 11 10
54 12 2
54 13 5
54 14 2
54 15 6
54 16 3
54 17 4
54 18 8
54 19 3
54 20 5
54 21 3
54 22 9
54 23 3
54 24 1
54 25 7
54 26 9
54 27 8
54 28 2
54 29 3
54 30 8
54 31 10
54 32 3
54 33 7
54 34 7
54 35 6
54 36 1
54 37 10
54 38 8
54 39 3
54 40 3
54 41 1
54 42 9
54 43 10
54 44 1
54 45 2
54 46 6
54 47 10
54 48 3
54 49 3
54 50 10
54 51 2
54 52 10
54 53 5
55 0 10
55 1 3
55 2 9
55 3 4
55 4 7
55 5 5
55 6 9
55 7 5
55 8 1
55 9 2
55 10 1
55 11 4
55 12 5
55 13 6
55 14 10
55 15 9
55 16 1
55 17 7
55 18 5
55 19 2
55 20 10
55 21 3
55 22 8
55 23 7
55 24 5
55 25 9
55 26 9
55 27 5
55 28 6
55 29 3
55 30 2
55 31 8
55 32 9
55 33 6
55 34 9
55 35 7
55 36 2
55 37 6
55 38 1
55 39 8
55 40 8
55 41 2
55 42 6
55 43 10
55 44 1
55 45 10
55 46 8
55 47 6
55 48 9
55 49 6
55 50 1
55 51 9
55 52 2
55 53 10
55 54 2
56 0 7
56 1 9
56 2 2
56 3 10
56 4 1
56 5 1
56 6 1
56 7 5
56 8 3
56 9 1
56 10 8
56 11 1
56 12 8
56 13 10
56 14 3
56 15 8
56 16 1
56 17 3
56 18 1
56 19 4
56 20 1
56 21 3
56 22 3
56 23 5
56 24 10
56 25 3
56 26 7
56 27 2
56 28 4
56 29 6
56 30 2
56 31 8
56 32 3
56 33 3
56 34 5
56 35 5
56 36 9
56 37 5
56 38 8
56 39 7
56 40 4
56 41 10
56 42 8
56 43 4
56 44 3
56 45 9
56 46 5
56 47 3
56 48 6
56 49 7
56 50 5
56 51 5
56 52 8
56 53 4
56 54 3
56 55 10
57 0 6
57 1 2
57 2 5
57 3 5
57 4 3
57 5 5
57 6 4
57 7 7
57 8 8
57 9 2
57 10 4
57 11 3
57 12 10
57 13 7
57 14 3
57 15 2
57 16 8
57 17 5
57 18 8
57 19 4
57 20 3
57 21 8
57 22 9
57 23 2
57 24 9
57 25 4
57 26 9
57 27 5
57 28 7
57 29 8
57 30 3
57 31 6
57 32 8
57 33 6
57 34 4
57 35 1
57 36 5
57 37 7
57 38 1
57 39 7
57 40 9
57 41 2
57 42 8
57 43 9
57 44 8
57 45 4
57 46 5
57 47 5
57 48 2
57 49 1
57 50 7
57 51 4
57 52 10
57 53 6
57 54 6
57 55 3
57 56 5
58 0 9
58 1 9
58 2 6
58 3 7
58 4 1
58 5 8
58 6 4
58 7 3
58 8 9
58 9 6
58 10 5
58 11 2
58 12 10
58 13 8
58 14 7
58 15 3
58 16 5
58 17 3
58 18 6
58 19 10
58 20 3
58 21 6
58 22 8
58 23 9
58 24 10
58 25 3
58 26 2
58 27 10
58 28 2
58 29 4
58 30 4
58 31 4
58 32 8
58 33 4
58 34 3
58 35 8
58 36 8
58 37 6
58 38 8
58 39 9
58 40 6
58 41 1
58 42 5
58 43 8
58 44 7
58 45 2
58 46 10
58 47 7
58 48 4
58 49 9
58 50 3
58 51 4
58 52 9
58 53 3
58 54 8
58 55 7
58 56 5
58 57 8
59 0 1
59 1 10
59 2 1
59 3 3
59 4 4
59 5 10
59 6 7
59 7 7
59 8 5
59 9 9
59 10 5
59 11 5
59 12 7
59 13 3
59 14 5
59 15 3
59 16 10
59 17 6
59 18 8
59 19 5
59 20 4
59 21 7
59 22 9
59 23 9
59 24 5
59 25 9
59 26 10
59 27 9
59 28 1
59 29 5
59 30 6
59 31 3
59 32 7
59 33 5
59 34 10
59 35 7
59 36 3
59 37 2
59 38 3
59 39 2
59 40 3
59 41 3
59 42 5
59 43 5
59 44 10
59 45 9
59 46 4
59 47 3
59 48 10
59 49 1
59 50 4
59 51 8
59 52 4
59 53 9
59 54 5
59 55 8
59 56 10
59 57 2
59 58 3
60 0 9
60 1 5
60 2 9
60 3 1
60 4 10
60 5 10
60 6 2
60 7 8
60 8 1
60 9 7
60 10 1
60 11 9
60 12 9
60 13 10
60 14 9
60 15 10
60 16 2
60 17 3
60 18 2
60 19 9
60 20 5
60 21 6
60 22 4
60 23 5
60 24 9
60 25 9
60 26 6
60 27 2
60 28 3
60 29 2
60 30 10
60 31 8
60 32 8
60 33 3
60 34 5
60 35 4
60 36 7
60 37 2
60 38 5
60 39 1
60 40 2
60 41 10
60 42 10
60 43 6
60 44 4
60 45 8
60 46 5
60 47 6
60 48 6
60 49 8
60 50 1
60 51 3
60 52 7
60 53 4
60 54 8
60 55 7
60 56 2
60 57 5
60 58 5
60 59 7
61 0 1
61 1 2
61 2 8
61 3 8
61 4 6
61 5 2
61 6 1
61 7 5
61 8 3
61 9 4
61 10 5
61 11 1
61 12 7
61 13 2
61 14 4
61 15 2
61 16 7
61 17 9
61 18 6
61 19 8
61 20 8
61 21 9
61 22 2
61 23 2
61 24 8
61 25 4
61 26 8
61 27 3
61 28 3
61 29 7
61 30 2
61 31 6
61 32 9
61 33 10
61 34 6
61 35 10
61 36 3
61 37 7
61 38 6
61 39 6
61 40 3
61 41 9
61 42 1
61 43 3
61 44 1
61 45 10
61 46 6
61 47 10
61 48 4
61 49 5
61 50 4
61 51 2
61 52 9
61 53 8
61 54 4
61 55 2
61 56 10
61 57 8
61 58 8
61 59 4
61 60 5
62 0 8
62 1 5
62 2 3
62 3 3
62 4 8
62 5 10
62 6 3
62 7 3
62 8 9
62 9 6
62 10 5
62 11 5
62 12 9
62 13 5
62 14 2
62 15 10
62 16 4
62 17 2
62 18 8
62 19 3
62 20 3
62 21 4
62 22 3
62 23 5
62 24 7
62 25 4
62 26 8
62 27 3
62 28 6
62 29 7
62 30 2
62 31 2
62 32 8
62 33 8
62 34 7
62 35 6
62 36 6
62 37 3
62 38 4
62 39 5
62 40 5
62 41 8
62 42 3
62 43 6
62 44 1
62 45 7
62 46 10
62 47 5
62 48 9
62 49 1
62 50 5
62 51 4
62 52 8
62 53 9
62 54 2
62 55 8
62 56 3
62 57 7
62 58 8
62 59 10
62 60 3
62 61 8
63 0 6
63 1 9
63 2 1
63 3 5
63 4 4
63 5 7
63 6 7
63 7 8
63 8 3
63 9 4
63 10 5
63 11 6
63 12 10
63 13 5
63 14 4
63 15 7
63 16 4
63 17 4
63 18 1
63 19 4
63 20 7
63 21 9
63 22 1
63 23 2
63 24 9
63 25 10
63 26 1
63 27 4
63 28 7
63 29 10
63 30 8
63 31 5
63 32 6
63 33 5
63 34 7
63 35 4
63 36 6
63 37 2
63 38 3
63 39 6
63 40 7
63 41 5
63 42 4
63 43 8
63 44 8
63 45 3
63 46 9
63 47 10
63 48 7
63 49 9
63 50 9
63 51 4
63 52 8
63 53 9
63 54 7
63 55 10
63 56 8
63 57 9
63 58 9
63 59 4
63 60 7
63 61 10
63 62 4
64 0 6
64 1 6
64 2 6
64 3 10
64 4 2
64 5 4
64 6 2
64 7 3
64 8 5
64 9 3
64 10 8
64 11 7
64 12 2
64 13 10
64 14 6
64 15 6
64 16 2
64 17 6
64 18 10
64 19 1
64 20 4
64 21 5
64 22 7
64 23 4
64 24 2
64 25 9
64 26 2
64 27 2
64 28 9
64 29 7
64 30 4
64 31 5
64 32 1
64 33 8
64 34 7
64 35 7
64 36 9
64 37 7
64 38 1
64 39 4
64 40 6
64 41 2
64 42 4
64 43 1
64 44 6
64 45 5
64 46 9
64 47 6
64 48 10
64 49 8
64 50 8
64 51 9
64 52 6
64 53 3
64 54 1
64 55 7
64 56 5
64 57 7
64 58 1
64 59 7
64 60 6
64 61 3
64 62 1
64 63 8
65 0 10
65 1 7
65 2 4
65 3 4
65 4 10
65 5 2
65 6 6
65 7 4
65 8 2
65 9 4
65 10 2
65 11 4
65 12 6
65 13 3
65 14 7
65 15 5
65 16 1
65 17 8
65 18 6
65 19 9
65 20 3
65 21 7
65 22 10
65 23 7
65 24 9
65 25 7
65 26 3
65 27 3
65 28 8
65 29 5
65 30 6
65 31 9
65 32 10
65 33 5
65 34 8
65 35 3
65 36 1
65 37 10
65 38 7
65 39 8
65 40 2
65 41 2
65 42 4
65 43 5
65 44 8
65 45 8
65 46 6
65 47 1
65 48 10
65 49 5
65 50 1
65 51 9
65 52 2
65 53 10
65 54 6
65 55 10
65 56 2
65 57 1
65 58 8
65 59 1
65 60 5
65 61 8
65 62 7
65 63 4
65 64 1
66 0 3
66 1 5
66 2 1
66 3 4
66 4 8
66 5 4
66 6 2
66 7 5
66 8 6
66 9 8
66 10 7
66 11 1
66 12 2
66 13 9
66 14 6
66 15 2
66 16 5
66 17 8
66 18 10
66 19 9
66 20 2
66 21 9
66 22 1
66 23 7
66 24 7
66 25 10
66 26 4
66 27 3
66 28 6
66 29 5
66 30 8
66 31 5
66 32 10
66 33 10
66 34 8
66 35 7
66 36 8
66 37 9
66 38 6
66 39 8
66 40 5
66 41 10
66 42 6
66 43 4
66 44 1
66 45 7
66 46 7
66 47 6
66 48 9
66 49 6
66 50 4
66 51 5
66 52 8
66 53 5
66 54 4
66 55 6
66 56 8
66 57 6
66 58 10
66 59 7
66 60 2
66 61 2
66 62 3
66 63 5
66 64 1
66 65 9
67 0 8
67 1 4
67 2 3
67 3 10
67 4 9
67 5 2
67 6 4
67 7 3
67 8 9
67 9 8
67 10 6
67 11 8
67 12 8
67 13 1
67 14 8
67 15 8
67 16 3
67 17 5
67 18 9
67 19 9
67 20 1
67 21 8
67 22 2
67 23 1
67 24 3
67 25 10
67 26 4
67 27 4
67 28 9
67 29 8
67 30 5
67 31 3
67 32 8
67 33 2
67 34 10
67 35 7
67 36 2
67 37 5
67 38 8
67 39 6
67 40 5
67 41 10
67 42 10
67 43 5
67 44 5
67 45 8
67 46 10
67 47 8
67 48 8
67 49 9
67 50 10
67 51 4
67 52 2
67 53 5
67 54 10
67 55 5
67 56 7
67 57 5
67 58 3
67 59 4
67 60 10
67 61 6
67 62 8
67 63 4
67 64 5
67 65 2
67 66 6
68 0 5
68 1 5
68 2 10
68 3 3
68 4 1
68 5 3
68 6 8
68 7 10
68 8 5
68 9 6
68 10 3
68 11 9
68 12 6
68 13 9
68 14 10
68 15 10
68 16 2
68 17 3
68 18 4
68 19 7
68 20 2
68 21 9
68 22 4
68 23 9
68 24 5
68 25 6
68 26 5
68 27 6
68 28 9
68 29 6
68 30 9
68 31 9
68 32 5
68 33 6
68 34 3
68 35 4
68 36 5
68 37 8
68 38 6
68 39 1
68 40 9
68 41 4
68 42 7
68 43 6
68 44 9
68 45 3
68 46 2
68 47 9
68 48 7
68 49 4
68 50 4
68 51 6
68 52 7
68 53 8
68 54 3
68 55 9
68 56 10
68 57 9
68 58 2
68 59 2
68 60 10
68 61 10
68 62 7
68 63 6
68 64 6
68 65 10
68 66 1
68 67 5
69 0 10
69 1 6
69 2 3
69 3 3
69 4 1
69 5 9
69 6 10
69 7 5
69 8 8
69 9 3
69 10 10
69 11 10
69 12 2
69 13 2
69 14 7
69 15 5
69 16 4
69 17 1
69 18 6
69 19 10
69 20 6
69 21 8
69 22 9
69 23 6
69 24 5
69 25 10
69 26 2
69 27 1
69 28 9
69 29 10
69 30 5
69 31 7
69 32 6
69 33 8
69 34 6
69 35 1
69 36 8
69 37 5
69 38 8
69 39 4
69 40 8
69 41 8
69 42 1
69 43 3
69 44 10
69 45 7
69 46 7
69 47 7
69 48 1
69 49 5
69 50 9
69 51 3
69 52 9
69 53 9
69 54 6
69 55 4
69 56 6
69 57 2
69 58 8
69 59 9
69 60 10
69 61 1
69 62 6
69 63 8
69 64 6
69 65 4
69 66 4
69 67 1
69 68 5
